27 42 
6 20 
85 30 
56 43 
3 94 
37 21 
83 13 
79 76 
57 63 
53 71 
91 13 
35 64 
83 76 
46 79 
39 20 
60 18 
62 66 
38 99 
48 46 
42 3 
40 31 
24 76 
45 55 
52 54 
70 57 
77 13 
70 64 
77 53 
41 75 
84 80 
95 96 
51 9 
14 41 
60 62 
88 3 
65 80 
34 41 
56 31 
48 60 
85 18 
17 14 
31 88 
79 60 
93 20 
36 78 
52 83 
74 55 
45 89 
97 5 
3 85 
